30
1 0 29
2 0 57
2 1 15
3 0 51
3 1 32
3 2 30
4 0 59
4 1 5
4 2 53
4 3 54
5 0 32
5 1 24
5 2 53
5 3 44
5 4 42
6 0 59
6 1 40
6 2 47
6 3 16
6 4 47
6 5 45
7 0 34
7 1 19
7 2 60
7 3 46
7 4 33
7 5 17
7 6 27
8 0 10
8 1 48
8 2 37
8 3 20
8 4 21
8 5 30
8 6 10
8 7 35
9 0 5
9 1 41
9 2 32
9 3 32
9 4 55
9 5 5
9 6 54
9 7 34
9 8 57
10 0 53
10 1 16
10 2 9
10 3 13
10 4 49
10 5 58
10 6 15
10 7 31
10 8 55
10 9 1
11 0 10
11 1 29
11 2 49
11 3 27
11 4 15
11 5 8
11 6 23
11 7 57
11 8 56
11 9 21
11 10 17
12 0 23
12 1 9
12 2 56
12 3 28
12 4 45
12 5 5
12 6 7
12 7 46
12 8 6
12 9 46
12 10 46
12 11 21
13 0 13
13 1 55
13 2 43
13 3 19
13 4 56
13 5 12
13 6 52
13 7 57
13 8 43
13 9 41
13 10 59
13 11 22
13 12 47
14 0 4
14 1 20
14 2 27
14 3 38
14 4 20
14 5 43
14 6 34
14 7 10
14 8 25
14 9 23
14 10 10
14 11 29
14 12 20
14 13 57
15 0 21
15 1 5
15 2 54
15 3 18
15 4 16
15 5 12
15 6 45
15 7 4
15 8 27
15 9 17
15 10 35
15 11 17
15 12 51
15 13 2
15 14 29
16 0 7
16 1 3
16 2 26
16 3 5
16 4 55
16 5 47
16 6 39
16 7 48
16 8 57
16 9 1
16 10 46
16 11 16
16 12 34
16 13 56
16 14 49
16 15 55
17 0 36
17 1 45
17 2 27
17 3 14
17 4 20
17 5 12
17 6 16
17 7 2
17 8 23
17 9 1
17 10 33
17 11 1
17 12 5
17 13 52
17 14 10
17 15 17
17 16 26
18 0 28
18 1 40
18 2 30
18 3 51
18 4 52
18 5 48
18 6 11
18 7 48
18 8 11
18 9 13
18 10 56
18 11 28
18 12 15
18 13 51
18 14 57
18 15 57
18 16 50
18 17 22
19 0 48
19 1 29
19 2 37
19 3 45
19 4 27
19 5 58
19 6 53
19 7 34
19 8 17
19 9 20
19 10 45
19 11 53
19 12 57
19 13 7
19 14 22
19 15 47
19 16 1
19 17 49
19 18 14
20 0 42
20 1 20
20 2 3
20 3 51
20 4 21
20 5 31
20 6 44
20 7 14
20 8 41
20 9 23
20 10 25
20 11 51
20 12 28
20 13 47
20 14 1
20 15 15
20 16 12
20 17 25
20 18 6
20 19 22
21 0 20
21 1 36
21 2 48
21 3 7
21 4 21
21 5 54
21 6 49
21 7 4
21 8 59
21 9 10
21 10 9
21 11 55
21 12 36
21 13 34
21 14 31
21 15 28
21 16 36
21 17 19
21 18 41
21 19 5
21 20 19
22 0 28
22 1 57
22 2 45
22 3 46
22 4 56
22 5 46
22 6 31
22 7 18
22 8 25
22 9 4
22 10 38
22 11 60
22 12 10
22 13 45
22 14 53
22 15 6
22 16 31
22 17 41
22 18 49
22 19 18
22 20 47
22 21 42
23 0 51
23 1 17
23 2 59
23 3 55
23 4 33
23 5 60
23 6 14
23 7 5
23 8 32
23 9 32
23 10 6
23 11 50
23 12 44
23 13 32
23 14 60
23 15 6
23 16 58
23 17 45
23 18 32
23 19 60
23 20 10
23 21 40
23 22 29
24 0 60
24 1 40
24 2 55
24 3 34
24 4 10
24 5 17
24 6 31
24 7 20
24 8 48
24 9 14
24 10 5
24 11 53
24 12 45
24 13 4
24 14 60
24 15 14
24 16 10
24 17 11
24 18 49
24 19 16
24 20 39
24 21 30
24 22 17
24 23 5
25 0 47
25 1 35
25 2 7
25 3 44
25 4 48
25 5 4
25 6 24
25 7 49
25 8 41
25 9 9
25 10 44
25 11 38
25 12 57
25 13 53
25 14 2
25 15 25
25 16 7
25 17 60
25 18 37
25 19 17
25 20 16
25 21 55
25 22 28
25 23 40
25 24 31
26 0 56
26 1 16
26 2 27
26 3 11
26 4 47
26 5 34
26 6 4
26 7 53
26 8 19
26 9 54
26 10 19
26 11 1
26 12 33
26 13 3
26 14 31
26 15 14
26 16 34
26 17 30
26 18 26
26 19 53
26 20 12
26 21 50
26 22 7
26 23 35
26 24 12
26 25 53
27 0 11
27 1 20
27 2 14
27 3 31
27 4 48
27 5 54
27 6 25
27 7 30
27 8 1
27 9 18
27 10 41
27 11 58
27 12 5
27 13 39
27 14 25
27 15 16
27 16 21
27 17 47
27 18 19
27 19 14
27 20 30
27 21 17
27 22 3
27 23 12
27 24 20
27 25 51
27 26 28
28 0 20
28 1 22
28 2 17
28 3 21
28 4 1
28 5 1
28 6 21
28 7 53
28 8 26
28 9 5
28 10 16
28 11 22
28 12 31
28 13 37
28 14 54
28 15 4
28 16 58
28 17 47
28 18 30
28 19 48
28 20 3
28 21 3
28 22 45
28 23 57
28 24 9
28 25 41
28 26 34
28 27 2
29 0 39
29 1 39
29 2 44
29 3 52
29 4 17
29 5 28
29 6 25
29 7 57
29 8 15
29 9 8
29 10 8
29 11 46
29 12 36
29 13 39
29 14 37
29 15 4
29 16 41
29 17 38
29 18 48
29 19 4
29 20 53
29 21 54
29 22 52
29 23 36
29 24 38
29 25 12
29 26 55
29 27 22
29 28 36
